20
587 233 220
49 25 21
60 51 41
103 76 64
95 70 62
111 49 26
85 84 72
48 36 31
86 76 38
71 48 47
90 43 33
98 52 44
73 37 23
61 48 39
75 75 63
74 42 40
98 88 26
97 69 41
89 77 46
73 64 55
84 69 66
thpack7_2